language ESSENCE' 1.0

letting jobs = 102
letting horizon = 797
letting resourcesRenew = 2
letting resourcesNonrenew = 2
letting resourceLimits = [56, 56, 163, 159]
letting successors = [[2, 3, 4, 5, 6, 7, 8, 9, 10, 11, 12, 13, 14, 16, 17, 19, 20, 22, 23, 24, 25, 26, 27, 28, 29, 30, 40], [99, 72, 69, 47, 43, 42, 39, 36, 34, 33, 21, 18], [100, 97, 96, 70, 69, 68, 64, 63, 62, 59, 56, 53, 52, 51, 50, 35, 31], [101, 97, 92, 71, 66, 64, 62, 59, 57, 50, 44, 43, 42, 39, 37, 32], [100, 97, 96, 94, 93, 92, 90, 80, 63, 52, 48, 46, 33, 31], [101, 99, 91, 72, 47, 15], [97, 92, 70, 67, 64, 57, 56, 48, 47, 46, 42, 31], [101, 100, 98, 97, 95, 94, 92, 90, 87, 72, 71, 69, 68, 67, 65, 60, 56, 52, 51, 47, 45], [97, 67, 66, 63, 60, 54, 52, 50, 46, 42, 39, 33], [101, 99, 98, 97, 96, 95, 93, 92, 91, 69, 65, 64, 61, 57, 56, 51, 49, 48, 43], [99, 98, 96, 95, 90, 87, 85, 71, 69, 67, 65, 58, 56, 52, 41, 39, 38], [100, 97, 94, 92, 90, 70, 67, 64, 62, 56, 52, 48, 31], [99, 98, 97, 96, 95, 94, 93, 92, 91, 90, 87, 86, 83, 71, 69, 67, 65, 63, 52, 51], [99, 97, 95, 94, 93, 92, 90, 88, 87, 86, 82, 70, 69, 68, 65, 61, 59, 56, 49], [97, 95, 93, 92, 88, 86, 68, 65, 57, 56, 53, 49, 48, 36], [100, 99, 98, 97, 94, 93, 92, 90, 89, 86, 85, 84, 69, 68, 67, 64, 61, 56, 55, 48], [100, 99, 96, 93, 91, 89, 85, 82, 76, 70, 68, 67, 50, 48, 34], [97, 96, 93, 92, 90, 86, 80, 79, 76, 71, 67, 61, 56, 48, 32], [99, 98, 97, 95, 94, 91, 90, 89, 87, 86, 85, 84, 83, 82, 79, 76, 72, 68, 67, 66, 63, 61, 56], [97, 94, 92, 86, 85, 79, 70, 48, 42, 39], [101, 100, 97, 93, 91, 90, 89, 86, 84, 78, 73, 71, 70, 65, 62, 49], [100, 98, 92, 91, 90, 85, 83, 70, 67, 65, 63, 62, 57, 56, 51], [96, 94, 92, 91, 88, 82, 68, 67, 64, 57, 48, 46], [100, 94, 89, 86, 80, 78, 69, 65, 62, 60, 59, 56], [101, 96, 95, 93, 92, 90, 87, 85, 84, 83, 82, 81, 80, 79, 78, 76, 75, 67, 66, 63], [96, 95, 93, 89, 88, 86, 76, 49, 48], [98, 96, 95, 94, 92, 87, 80, 78, 67, 65, 62, 57], [93, 91, 90, 88, 86, 84, 82, 76, 74, 67, 61, 49], [98, 96, 95, 93, 92, 90, 88, 86, 84, 82, 81, 79, 78, 77, 75, 73, 65], [99, 96, 95, 94, 88, 87, 85, 81, 78, 77, 74, 67, 52], [99, 98, 95, 91, 88, 86, 84, 78, 73, 65, 60], [98, 95, 91, 87, 85, 84, 83, 82, 81, 78, 74, 73, 63], [101, 89, 86, 85, 83, 79, 77, 73, 70, 68, 62], [92, 88, 87, 86, 84, 80, 79, 78, 77, 65, 61], [92, 91, 90, 86, 84, 83, 81, 80, 78, 65, 61], [90, 81, 79, 78, 77, 66, 61, 59], [82, 77, 76, 75, 74, 68, 67, 60], [94, 92, 91, 86, 81, 80, 79, 78, 77, 75, 66], [93, 89, 83, 82, 81, 80, 77, 76, 74, 61], [88, 85, 84, 80, 79, 77, 76, 66, 61], [92, 91, 88, 81, 80, 78, 76, 73, 66], [91, 90, 84, 82, 74, 68, 61], [94, 90, 86, 82, 80, 77, 76, 75, 73], [93, 89, 87, 84, 82, 79, 76, 67], [96, 91, 85, 82, 79, 76, 75, 74], [89, 87, 86, 78, 76, 74, 69], [96, 88, 84, 82, 76, 74, 73], [87, 83, 78, 75, 73, 66], [80, 77, 75, 60], [94, 80, 79, 78, 75, 74], [80, 79, 78, 75, 66], [89, 84, 76, 61], [87, 79, 76, 75, 73], [93, 89, 88, 77, 75], [96, 87, 82, 77, 73], [81, 77, 75, 73], [89, 81, 77, 76], [83, 80, 76, 73], [84, 76, 67], [85, 83, 79], [75, 73], [82, 76], [88, 77], [80, 79], [66], [74], [73], [78], [73], [81], [81], [74], [102], [102], [102], [102], [102], [102], [102], [102], [102], [102], [102], [102], [102], [102], [102], [102], [102], [102], [102], [102], [102], [102], [102], [102], [102], [102], [102], [102], [102], []]
letting durations = [[0], [9, 10, 10], [6, 8, 10], [4, 5, 6], [2, 3, 4], [1, 3, 10], [1, 5, 6], [1, 6, 10], [4, 7, 8], [1, 2, 3], [2, 4, 9], [4, 5, 8], [3, 6, 9], [1, 4, 6], [2, 9, 10], [5, 6, 7], [2, 2, 4], [1, 4, 6], [2, 3, 5], [4, 6, 8], [1, 3, 8], [3, 8, 9], [1, 6, 9], [3, 5, 10], [5, 5, 6], [2, 5, 9], [1, 6, 10], [3, 4, 7], [3, 6, 8], [4, 4, 5], [3, 9, 10], [6, 8, 8], [1, 2, 7], [4, 7, 9], [6, 7, 10], [1, 4, 7], [7, 8, 10], [1, 7, 9], [5, 5, 6], [1, 3, 9], [1, 5, 10], [1, 7, 10], [3, 7, 10], [8, 9, 10], [3, 8, 9], [2, 7, 10], [4, 5, 8], [1, 1, 6], [2, 3, 7], [1, 4, 6], [3, 8, 8], [3, 5, 8], [3, 5, 5], [2, 4, 6], [8, 8, 9], [3, 4, 5], [2, 3, 9], [1, 2, 8], [1, 2, 5], [1, 1, 5], [10, 10, 10], [5, 9, 10], [1, 6, 9], [3, 6, 7], [5, 9, 10], [8, 9, 10], [6, 6, 9], [4, 5, 7], [8, 9, 10], [4, 5, 9], [6, 10, 10], [2, 3, 9], [4, 6, 7], [4, 4, 5], [1, 5, 5], [6, 7, 10], [5, 6, 10], [2, 5, 6], [2, 5, 9], [1, 6, 10], [8, 9, 9], [6, 7, 7], [1, 7, 9], [5, 6, 10], [1, 8, 9], [1, 3, 9], [5, 6, 6], [5, 7, 9], [1, 5, 8], [1, 2, 4], [1, 1, 6], [3, 4, 10], [1, 2, 6], [2, 6, 10], [5, 6, 9], [2, 4, 6], [4, 6, 9], [1, 3, 5], [3, 7, 9], [4, 5, 9], [6, 7, 7], [0]]
letting resourceUsage = [[[0, 0, 0, 0]], [[0, 4, 0, 7], [0, 3, 0, 7], [1, 0, 5, 0]], [[0, 3, 8, 0], [3, 0, 0, 4], [0, 1, 8, 0]], [[0, 4, 0, 6], [2, 0, 7, 0], [1, 0, 0, 1]], [[3, 0, 0, 6], [2, 0, 0, 3], [2, 0, 0, 2]], [[0, 5, 7, 0], [3, 0, 0, 6], [0, 4, 2, 0]], [[0, 5, 7, 0], [0, 3, 5, 0], [0, 3, 4, 0]], [[2, 0, 5, 0], [1, 0, 4, 0], [0, 2, 3, 0]], [[0, 4, 5, 0], [2, 0, 0, 3], [2, 0, 0, 2]], [[2, 0, 0, 3], [2, 0, 4, 0], [0, 2, 0, 3]], [[0, 3, 8, 0], [3, 0, 7, 0], [3, 0, 5, 0]], [[4, 0, 5, 0], [3, 0, 2, 0], [3, 0, 1, 0]], [[5, 0, 0, 7], [0, 1, 7, 0], [0, 1, 0, 2]], [[0, 5, 6, 0], [3, 0, 4, 0], [0, 3, 4, 0]], [[0, 5, 8, 0], [3, 0, 7, 0], [0, 2, 5, 0]], [[0, 4, 0, 8], [1, 0, 5, 0], [1, 0, 4, 0]], [[3, 0, 0, 7], [2, 0, 8, 0], [0, 2, 0, 3]], [[0, 4, 10, 0], [4, 0, 0, 2], [4, 0, 10, 0]], [[0, 4, 2, 0], [2, 0, 2, 0], [0, 1, 2, 0]], [[0, 2, 0, 5], [2, 0, 0, 5], [0, 1, 0, 1]], [[2, 0, 8, 0], [0, 3, 5, 0], [0, 2, 0, 6]], [[0, 3, 7, 0], [2, 0, 7, 0], [0, 2, 3, 0]], [[0, 3, 0, 2], [0, 3, 3, 0], [0, 3, 0, 1]], [[0, 4, 0, 3], [3, 0, 0, 3], [2, 0, 0, 3]], [[5, 0, 0, 9], [3, 0, 9, 0], [3, 0, 0, 4]], [[3, 0, 7, 0], [3, 0, 6, 0], [0, 1, 0, 1]], [[4, 0, 4, 0], [0, 4, 0, 5], [3, 0, 2, 0]], [[0, 4, 5, 0], [0, 3, 3, 0], [2, 0, 0, 2]], [[3, 0, 5, 0], [2, 0, 0, 3], [0, 1, 1, 0]], [[5, 0, 3, 0], [3, 0, 0, 3], [2, 0, 2, 0]], [[4, 0, 7, 0], [3, 0, 5, 0], [0, 3, 2, 0]], [[5, 0, 0, 7], [4, 0, 0, 6], [0, 1, 0, 5]], [[0, 2, 0, 6], [0, 1, 0, 6], [0, 1, 0, 5]], [[4, 0, 0, 8], [4, 0, 7, 0], [3, 0, 0, 3]], [[1, 0, 10, 0], [1, 0, 0, 2], [1, 0, 0, 1]], [[3, 0, 7, 0], [3, 0, 0, 7], [3, 0, 0, 4]], [[0, 3, 9, 0], [0, 2, 5, 0], [0, 2, 0, 7]], [[3, 0, 0, 10], [0, 5, 4, 0], [1, 0, 0, 9]], [[5, 0, 0, 9], [4, 0, 3, 0], [3, 0, 3, 0]], [[0, 4, 10, 0], [5, 0, 7, 0], [5, 0, 6, 0]], [[5, 0, 8, 0], [0, 1, 6, 0], [3, 0, 0, 3]], [[2, 0, 0, 9], [1, 0, 0, 7], [1, 0, 0, 6]], [[3, 0, 0, 6], [0, 3, 9, 0], [0, 1, 0, 4]], [[3, 0, 0, 2], [3, 0, 3, 0], [0, 1, 0, 1]], [[2, 0, 5, 0], [2, 0, 4, 0], [1, 0, 5, 0]], [[0, 3, 7, 0], [2, 0, 5, 0], [0, 2, 3, 0]], [[0, 2, 0, 8], [0, 2, 5, 0], [1, 0, 5, 0]], [[0, 2, 0, 10], [0, 2, 4, 0], [0, 2, 0, 4]], [[4, 0, 9, 0], [3, 0, 5, 0], [0, 2, 4, 0]], [[0, 3, 5, 0], [4, 0, 3, 0], [2, 0, 1, 0]], [[0, 4, 7, 0], [0, 3, 0, 3], [0, 3, 5, 0]], [[3, 0, 0, 10], [3, 0, 0, 6], [3, 0, 0, 5]], [[3, 0, 0, 4], [0, 1, 0, 3], [0, 1, 1, 0]], [[4, 0, 0, 3], [3, 0, 5, 0], [0, 1, 0, 1]], [[5, 0, 0, 7], [0, 2, 0, 7], [0, 2, 7, 0]], [[5, 0, 0, 8], [4, 0, 0, 7], [0, 4, 0, 5]], [[0, 4, 6, 0], [1, 0, 3, 0], [0, 2, 0, 5]], [[4, 0, 0, 9], [3, 0, 0, 6], [0, 2, 0, 3]], [[5, 0, 1, 0], [5, 0, 0, 5], [0, 4, 1, 0]], [[0, 4, 0, 9], [2, 0, 0, 6], [0, 2, 0, 1]], [[3, 0, 0, 6], [0, 4, 0, 5], [2, 0, 5, 0]], [[0, 3, 0, 5], [1, 0, 0, 3], [1, 0, 0, 2]], [[3, 0, 0, 8], [0, 3, 0, 8], [1, 0, 2, 0]], [[0, 4, 0, 5], [0, 4, 6, 0], [3, 0, 0, 2]], [[4, 0, 7, 0], [3, 0, 5, 0], [0, 4, 3, 0]], [[0, 2, 0, 9], [0, 2, 0, 5], [1, 0, 4, 0]], [[2, 0, 4, 0], [0, 2, 0, 4], [0, 2, 2, 0]], [[0, 4, 0, 8], [3, 0, 4, 0], [2, 0, 4, 0]], [[0, 3, 0, 6], [0, 3, 0, 4], [3, 0, 0, 3]], [[0, 5, 8, 0], [0, 5, 5, 0], [0, 5, 0, 2]], [[0, 2, 0, 2], [2, 0, 0, 2], [0, 2, 0, 1]], [[4, 0, 7, 0], [2, 0, 5, 0], [2, 0, 4, 0]], [[2, 0, 9, 0], [2, 0, 8, 0], [2, 0, 7, 0]], [[0, 4, 0, 4], [0, 4, 5, 0], [0, 4, 4, 0]], [[1, 0, 0, 2], [1, 0, 0, 1], [1, 0, 2, 0]], [[0, 3, 0, 7], [0, 3, 0, 6], [3, 0, 0, 5]], [[3, 0, 7, 0], [2, 0, 5, 0], [0, 4, 2, 0]], [[0, 4, 4, 0], [0, 4, 3, 0], [2, 0, 0, 1]], [[5, 0, 0, 5], [3, 0, 0, 3], [2, 0, 5, 0]], [[4, 0, 0, 6], [0, 4, 3, 0], [4, 0, 0, 5]], [[0, 4, 0, 8], [1, 0, 0, 5], [0, 3, 0, 1]], [[3, 0, 0, 9], [0, 3, 3, 0], [0, 1, 0, 4]], [[0, 5, 0, 9], [0, 4, 0, 6], [0, 4, 0, 4]], [[2, 0, 6, 0], [2, 0, 0, 2], [2, 0, 0, 1]], [[2, 0, 0, 2], [2, 0, 0, 1], [0, 4, 0, 1]], [[0, 4, 5, 0], [0, 4, 4, 0], [0, 3, 5, 0]], [[4, 0, 0, 2], [0, 1, 0, 2], [3, 0, 5, 0]], [[0, 4, 7, 0], [0, 2, 5, 0], [0, 2, 0, 2]], [[0, 3, 0, 5], [2, 0, 0, 2], [0, 2, 0, 2]], [[1, 0, 0, 9], [1, 0, 0, 5], [0, 2, 2, 0]], [[4, 0, 9, 0], [0, 3, 6, 0], [3, 0, 0, 10]], [[0, 4, 0, 5], [0, 2, 0, 5], [0, 2, 0, 3]], [[0, 2, 10, 0], [0, 2, 6, 0], [4, 0, 0, 3]], [[0, 3, 0, 7], [0, 2, 0, 5], [3, 0, 0, 3]], [[1, 0, 0, 7], [0, 3, 0, 5], [0, 2, 0, 2]], [[0, 4, 0, 8], [2, 0, 4, 0], [0, 1, 2, 0]], [[3, 0, 0, 5], [1, 0, 0, 5], [1, 0, 2, 0]], [[5, 0, 0, 6], [3, 0, 0, 4], [0, 3, 3, 0]], [[0, 3, 0, 8], [0, 1, 5, 0], [4, 0, 0, 4]], [[3, 0, 3, 0], [3, 0, 0, 4], [3, 0, 0, 1]], [[0, 4, 7, 0], [3, 0, 0, 4], [0, 3, 5, 0]], [[0, 0, 0, 0]]]
